c This Formular is generated by mcnf
c
c    horn? no 
c    forced? no 
c    mixed sat? no 
c    clause length = 3 
c
p cnf 20  91 
 -5 -17 18 0
11 -2 16 0
11 12 -14 0
-5 6 7 0
10 -14 11 0
11 -16 -1 0
10 -13 14 0
-14 -9 -18 0
-2 19 1 0
10 15 -20 0
9 -12 -13 0
-20 8 -3 0
-18 -3 -7 0
-10 1 -18 0
-16 10 -15 0
13 18 7 0
-16 -6 14 0
-17 5 4 0
-3 4 2 0
8 14 -16 0
-15 1 19 0
%
0

34 34 52 72 40 59 96 49 26 10 96 4 65 73 51 80 71 44 40 83
